n_tasks = 10; %Number of tasks
duration = [10,10,25,25,10,20,15,20,10,20];% Task durations

n_res = 3; % Number of resources
L = [4, 4, 4]; % Resource capacities 
req = % Resource requirements of tasks
      [| 0, 0, 0, 0, 0, 3, 0, 2, 1, 2 
       | 0, 3, 0, 0, 0, 2, 2, 0, 1, 0
       | 0, 0, 2, 2, 1, 0, 0, 0, 0, 2 |];
       
p = 14; % Number of precedence relations
pre =   % Precedence relations
  [| 1, 2
   | 1, 6
   | 1, 7
   | 1, 9
   | 2, 4 
   | 2, 3
   | 4, 5
   | 3, 5
   | 6, 8
   | 7, 8 
   | 7, 10
   | 9, 10 
   | 8, 4
   | 10, 3|];

       
